100 1594
510 255 927 927 515 408 927 618 102 408 408 459 927 309 306 1030 204 515 206 309 412 309 103 412 357 412 1030 618 309 412 618 255 51 306 357 408 618 204 204 306 618 412 102 618 255 927 309 412 721 102 206 510 721 459 721 309 618 618 206 204 255 357 824 515 102 204 102 102 927 1030 510 408 408 459 721 51 515 721 408 309 206 206 357 357 408 459 824 204 204 824 204 103 309 204 515 357 306 721 408 357 
310 155 747 747 415 248 747 498 62 248 248 279 747 249 186 830 124 415 166 249 332 249 83 332 217 332 830 498 249 332 498 155 31 186 217 248 498 124 124 186 498 332 62 498 155 747 249 332 581 62 166 310 581 279 581 249 498 498 166 124 155 217 664 415 62 124 62 62 747 830 310 248 248 279 581 31 415 581 248 249 166 166 217 217 248 279 664 124 124 664 124 83 249 124 415 217 186 581 248 217 
